p tw 60 963
0 1
0 2
0 3
0 4
0 5
0 6
0 7
0 8
0 9
0 12
0 15
0 16
0 18
0 19
0 20
0 21
0 22
0 14
0 31
0 38
0 42
0 43
0 49
0 56
1 2
1 3
1 4
1 5
1 6
1 7
1 8
1 9
1 13
1 17
1 32
1 36
1 38
1 43
1 44
1 11
1 28
1 41
1 42
1 45
1 46
1 47
1 48
1 18
1 21
1 26
1 27
1 31
1 39
1 16
1 20
1 23
1 25
1 29
1 49
1 57
1 19
1 33
1 35
1 12
1 53
2 3
2 4
2 5
2 6
2 7
2 8
2 9
2 14
2 15
2 18
2 28
2 29
2 36
2 54
2 55
2 19
2 20
2 22
2 25
2 31
2 46
2 52
2 56
2 12
2 38
2 49
2 53
3 4
3 5
3 6
3 7
3 8
3 9
3 14
3 18
3 32
3 40
3 41
3 43
3 47
3 49
3 10
3 21
3 22
3 44
3 48
3 51
3 52
3 11
3 26
3 29
3 45
3 50
3 54
3 58
4 5
4 6
4 7
4 8
4 9
4 18
4 21
4 26
4 27
4 31
4 32
4 38
4 39
4 16
4 24
4 48
4 57
4 58
4 42
4 49
4 50
4 51
4 10
4 41
4 54
5 6
5 7
5 8
5 9
5 13
5 31
5 32
5 33
5 34
5 35
5 36
5 37
5 38
5 24
5 48
5 49
5 50
5 51
5 22
5 25
5 26
5 43
5 58
5 19
5 27
5 57
5 18
5 21
5 23
5 28
5 40
5 44
5 12
5 46
5 53
5 10
5 17
5 39
5 59
6 7
6 8
6 9
6 12
6 15
6 16
6 18
6 19
6 20
6 21
6 22
6 11
6 23
6 24
6 25
6 26
6 27
6 28
6 29
6 30
6 13
6 17
6 32
6 36
6 38
6 43
6 44
6 14
6 40
6 41
6 47
6 49
6 31
6 42
6 56
6 57
6 39
6 48
6 58
6 50
6 51
6 45
6 54
6 59
7 8
7 9
7 10
7 11
7 12
7 13
7 14
7 15
7 16
7 17
7 18
7 19
7 21
7 30
7 32
7 35
7 45
7 48
7 54
7 24
7 41
7 49
7 50
7 57
7 38
7 46
7 53
8 9
8 13
8 17
8 32
8 36
8 38
8 43
8 44
8 24
8 33
8 34
8 37
8 48
8 49
8 50
8 51
8 22
8 25
8 26
8 58
8 19
8 21
8 30
8 35
8 45
8 54
9 14
9 15
9 18
9 28
9 29
9 36
9 54
9 55
9 21
9 24
9 27
9 42
9 49
9 50
9 51
9 19
9 32
9 33
9 35
9 57
9 12
9 38
9 46
9 53
10 11
10 12
10 13
10 14
10 15
10 16
10 17
10 18
10 21
10 25
10 35
10 36
10 39
10 40
10 41
10 42
10 22
10 44
10 48
10 49
10 51
10 52
10 24
10 50
10 54
10 57
10 37
10 53
10 59
11 12
11 13
11 14
11 15
11 16
11 17
11 18
11 23
11 24
11 25
11 26
11 27
11 28
11 29
11 30
11 41
11 42
11 45
11 46
11 47
11 48
11 31
11 35
11 36
11 40
11 49
11 51
11 53
11 20
11 57
11 50
11 54
11 58
12 13
12 14
12 15
12 16
12 17
12 18
12 19
12 20
12 21
12 22
12 25
12 34
12 36
12 43
12 53
12 56
12 57
12 38
12 46
12 49
13 14
13 15
13 16
13 17
13 18
13 31
13 32
13 33
13 34
13 35
13 36
13 37
13 38
13 43
13 44
13 21
13 23
13 28
13 40
13 57
13 30
13 45
13 59
14 15
14 16
14 17
14 18
14 32
14 40
14 41
14 43
14 47
14 49
14 28
14 29
14 36
14 54
14 55
14 19
14 31
14 38
14 42
14 56
15 16
15 17
15 18
15 19
15 20
15 21
15 22
15 28
15 29
15 36
15 54
15 55
15 25
15 34
15 43
15 53
15 56
15 57
15 30
15 31
15 32
15 38
15 45
15 59
15 46
15 49
15 50
16 17
16 18
16 19
16 20
16 21
16 22
16 23
16 25
16 29
16 49
16 57
16 24
16 27
16 32
16 39
16 48
16 58
16 28
16 46
16 50
16 55
16 56
17 18
17 32
17 36
17 38
17 43
17 44
17 28
17 41
17 42
17 45
17 46
17 47
17 48
17 25
17 37
17 39
17 40
17 53
17 59
18 19
18 20
18 21
18 22
18 25
18 35
18 36
18 39
18 40
18 41
18 42
18 32
18 43
18 47
18 49
18 26
18 27
18 31
18 38
18 28
18 29
18 54
18 55
18 23
18 44
18 57
19 20
19 21
19 22
19 31
19 38
19 42
19 43
19 49
19 56
19 25
19 46
19 52
19 55
19 30
19 32
19 35
19 45
19 48
19 54
19 27
19 33
19 57
19 34
19 36
19 53
20 21
20 22
20 25
20 31
20 46
20 52
20 55
20 56
20 23
20 29
20 49
20 57
20 28
20 50
21 22
21 25
21 35
21 36
21 39
21 40
21 41
21 42
21 44
21 48
21 49
21 51
21 52
21 26
21 27
21 31
21 32
21 38
21 24
21 50
21 30
21 45
21 54
21 23
21 28
21 57
22 41
22 44
22 48
22 49
22 51
22 52
22 25
22 31
22 46
22 55
22 56
22 26
22 33
22 38
22 43
22 58
22 28
22 50
23 24
23 25
23 26
23 27
23 28
23 29
23 30
23 49
23 57
23 40
23 44
24 25
24 26
24 27
24 28
24 29
24 30
24 33
24 34
24 37
24 48
24 49
24 50
24 51
24 32
24 39
24 57
24 58
24 42
24 41
24 54
25 26
25 27
25 28
25 29
25 30
25 35
25 36
25 39
25 40
25 41
25 42
25 31
25 45
25 49
25 51
25 53
25 46
25 52
25 55
25 56
25 57
25 33
25 38
25 43
25 48
25 58
25 34
25 37
25 59
26 27
26 28
26 29
26 30
26 31
26 32
26 38
26 39
26 33
26 43
26 48
26 58
26 45
26 47
26 50
26 54
27 28
27 29
27 30
27 31
27 32
27 38
27 39
27 48
27 57
27 58
27 42
27 49
27 50
27 51
27 33
27 35
28 29
28 30
28 41
28 42
28 45
28 46
28 47
28 48
28 36
28 54
28 55
28 40
28 44
28 57
28 49
28 50
28 56
29 30
29 36
29 54
29 55
29 49
29 57
29 45
29 47
29 50
29 58
30 32
30 35
30 45
30 48
30 54
30 31
30 38
30 43
30 59
31 32
31 33
31 34
31 35
31 36
31 37
31 38
31 40
31 45
31 49
31 51
31 53
31 39
31 42
31 43
31 56
31 46
31 52
31 55
31 59
32 33
32 34
32 35
32 36
32 37
32 38
32 43
32 44
32 40
32 41
32 47
32 49
32 39
32 48
32 57
32 58
32 45
32 54
32 59
33 34
33 35
33 36
33 37
33 38
33 48
33 49
33 50
33 51
33 43
33 58
33 57
34 35
34 36
34 37
34 38
34 48
34 49
34 50
34 51
34 43
34 53
34 56
34 57
35 36
35 37
35 38
35 39
35 40
35 41
35 42
35 45
35 49
35 51
35 53
35 48
35 54
35 57
36 37
36 38
36 39
36 40
36 41
36 42
36 43
36 44
36 45
36 49
36 51
36 53
36 54
36 55
36 56
36 57
36 59
37 38
37 48
37 49
37 50
37 51
37 39
37 40
37 53
37 59
38 43
38 44
38 39
38 42
38 49
38 56
38 48
38 58
38 45
38 59
38 46
38 53
39 40
39 41
39 42
39 48
39 57
39 58
39 53
39 59
40 41
40 42
40 43
40 47
40 49
40 45
40 51
40 53
40 44
40 57
40 59
41 42
41 45
41 46
41 47
41 48
41 43
41 49
41 44
41 51
41 52
41 50
41 54
41 57
42 45
42 46
42 47
42 48
42 43
42 49
42 56
42 50
42 51
43 44
43 47
43 49
43 56
43 48
43 58
43 53
43 57
43 45
43 59
44 48
44 49
44 51
44 52
44 57
45 46
45 47
45 48
45 49
45 51
45 53
45 54
45 50
45 58
45 59
46 47
46 48
46 52
46 55
46 56
46 49
46 53
46 50
47 48
47 49
47 50
47 54
47 58
48 49
48 50
48 51
48 52
48 57
48 58
48 54
49 50
49 51
49 52
49 53
49 56
49 57
49 54
49 55
50 51
50 54
50 57
50 58
50 55
50 56
51 52
51 53
52 55
52 56
53 56
53 57
53 59
54 55
54 57
54 58
55 56
56 57
57 58
